tsp_instances/TSP20/instance9.tsp
NODE_COORD_SECTION
0 162 37
1 89 109
2 81 112
3 139 84
4 138 88
5 177 123
6 190 178
7 52 133
8 32 54
9 81 80
10 9 106
11 15 69
12 120 49
13 186 125
14 33 32
15 93 62
16 148 113
17 131 2
18 82 114
19 192 18
