tsp_instances/TSP20/instance9.opt.tour
TOUR_SECTION
1
4
5
17
6
14
7
2
3
19
8
11
12
9
15
10
16
13
18
20
-1